data/benchmarks/bayes/90-14-5-q.cnf
p cnf 924 839
c weights 0.471631 0.528369 1 1 1 1 1 1 1 1 1 1 1 1 1 1 1 1 1 1 1 1 1 1 1 1 1 1 1 1 1 1 1 1 1 1 1 1 1 1 1 1 1 1 1 1 1 1 1 1 1 1 1 1 1 1 1 1 1 1 1 1 1 1 1 1 1 1 1 1 1 1 1 1 1 1 1 1 1 1 1 1 1 1 1 1 1 1 1 1 1 1 1 1 1 1 1 1 1 1 1 1 1 1 1 1 1 1 1 1 1 1 1 1 1 1 1 1 1 1 1 1 1 1 1 1 1 1 1 1 1 1 1 1 1 1 1 1 1 1 1 1 1 1 1 1 1 1 1 1 1 1 1 1 1 1 1 1 1 1 1 1 1 1 1 1 1 1 1 1 1 1 1 1 1 1 1 1 1 1 1 1 1 1 1 1 1 1 1 1 1 1 1 1 1 1 1 1 1 1 1 1 1 1 1 1 1 1 1 1 1 1 1 1 1 1 1 1 1 1 1 1 1 1 1 1 1 1 1 1 1 1 1 1 1 1 1 1 1 1 1 1 1 1 1 1 1 1 1 1 1 1 1 1 1 1 1 1 1 1 1 1 1 1 1 1 1 1 1 1 1 1 1 1 1 1 1 1 1 1 1 1 1 1 1 1 1 1 1 1 1 1 1 1 1 1 1 1 1 1 1 1 1 1 1 1 1 1 1 1 1 1 1 1 1 1 1 1 1 1 1 1 1 1 1 1 1 1 1 1 1 1 1 1 1 1 1 1 1 1 1 1 1 1 1 1 1 1 1 1 1 1 1 1 1 1 1 1 1 1 1 1 1 1 1 1 1 1 1 1 1 1 1 1 1 1 1 1 1 1 1 1 1 1 1 1 1 1 1 1 1 1 0.5 0.5 0.5 0.5 0.5 0.5 0.5 0.5 0.5 0.5 0.5 0.5 0.5 0.5 0.5 0.5 0.5 0.5 0.5 0.5 0.5 0.5 0.5 0.5 0.5 0.5 0.5 0.5 0.5 0.5 0.5 0.5 0.5 0.5 0.5 0.5 0.369405 0.630595 0.199265 0.800735 0.5 0.5 0.5 0.5 0.5 0.5 0.5 0.5 0.5 0.5 0.5 0.5 0.5 0.5 0.5 0.5 0.5 0.5 0.5 0.5 0.5 0.5 0.5 0.5 0.5 0.5 0.5 0.5 0.5 0.5 0.5 0.5 0.5 0.5 0.5 0.5 0.5 0.5 0.5 0.5 0.5 0.5 0.5 0.5 0.5 0.5 0.5 0.5 0.911786 0.08821400000000001 0.68271 0.31728999999999996 0.402064 0.597936 0.206033 0.793967 0.5 0.5 0.5 0.5 0.5 0.5 0.5 0.5 0.5 0.5 0.5 0.5 0.5 0.5 0.5 0.5 0.5 0.5 0.5 0.5 0.5 0.5 0.5 0.5 0.5 0.5 0.5 0.5 0.5 0.5 0.5 0.5 0.511389 0.488611 0.587114 0.412886 0.519645 0.480355 0.22391 0.77609 0.5 0.5 0.5 0.5 0.5 0.5 0.5 0.5 0.5 0.5 0.5 0.5 0.5 0.5 0.5 0.5 0.5 0.5 0.5 0.5 0.5 0.5 0.5 0.5 0.5 0.5 0.5 0.5 0.273807 0.726193 0.625579 0.374421 0.909281 0.090719 0.815154 0.18484599999999995 0.5 0.5 0.5 0.5 0.5 0.5 0.5 0.5 0.5 0.5 0.5 0.5 0.5 0.5 0.5 0.5 0.5 0.5 0.5 0.5 0.5 0.5 0.5 0.5 0.5 0.5 0.5 0.5 0.5 0.5 0.5 0.5 0.5 0.5 0.5 0.5 0.5 0.5 0.5 0.5 0.703314 0.296686 0.614189 0.385811 0.622009 0.37799099999999997 0.612594 0.38740600000000003 0.5 0.5 0.5 0.5 0.5 0.5 0.5 0.5 0.992552 0.00744800000000001 0.803517 0.19648299999999996 0.124525 0.875475 0.253761 0.746239 0.5 0.5 0.5 0.5 0.5 0.5 0.5 0.5 0.5 0.5 0.5 0.5 0.5 0.5 0.5 0.5 0.5 0.5 0.5 0.5 0.5 0.5 0.5 0.5 0.5 0.5 0.5 0.5 0.5 0.5 0.5 0.5 0.5 0.5 0.5 0.5 0.5 0.5 0.5 0.5 0.5 0.5 0.5 0.5 0.5 0.5 0.5 0.5 0.5 0.5 0.5 0.5 0.5 0.5 0.5 0.5 0.5 0.5 0.5 0.5 0.5 0.5 0.5 0.5 0.5 0.5 0.5 0.5 0.689385 0.310615 0.440763 0.559237 0.138307 0.861693 0.671814 0.328186 0.5 0.5 0.5 0.5 0.5 0.5 0.5 0.5 0.5 0.5 0.5 0.5 0.5 0.5 0.5 0.5 0.5 0.5 0.5 0.5 0.5 0.5 0.5 0.5 0.5 0.5 0.5 0.5 0.5 0.5 0.5 0.5 0.5 0.5 0.5 0.5 0.5 0.5 0.5 0.5 0.5 0.5 0.5 0.5 0.5 0.5 0.5 0.5 0.5 0.5 0.5 0.5 0.5 0.5 0.5 0.5 0.5 0.5 0.5 0.5 0.5 0.5 0.5 0.5 0.5 0.5 0.5 0.5 0.5 0.5 0.5 0.5 0.5 0.5 0.5 0.5 0.5 0.5 0.5 0.5 0.5 0.5 0.5 0.5 0.5 0.5 0.5 0.5 0.5 0.5 0.5 0.5 0.5 0.5 0.5 0.5 0.5 0.5 0.5 0.5 0.5 0.5 0.5 0.5 0.5 0.5 0.5 0.5 0.5 0.5 0.5 0.5 0.5 0.5 0.5 0.5 0.5 0.5 0.5 0.5 0.5 0.5 0.5 0.5 0.00419257 0.99580743 0.73666 0.26334 0.678308 0.321692 0.903748 0.096252 0.5 0.5 0.5 0.5 0.5 0.5 0.5 0.5 0.5 0.5 0.5 0.5 0.5 0.5 0.5 0.5 0.5 0.5 0.5 0.5 0.5 0.5 0.5 0.5 0.5 0.5 0.5 0.5 0.5 0.5 0.5 0.5 0.5 0.5 0.5 0.5 0.5 0.5 0.5 0.5 0.5 0.5 0.5 0.5 0.5 0.5 0.5 0.5 0.5 0.5 0.5 0.5 0.5 0.5 0.5 0.5 0.5 0.5 0.5 0.5 0.5 0.5 0.5 0.5 0.5 0.5 0.5 0.5 0.5 0.5 0.5 0.5 0.5 0.5 0.5 0.5 0.5 0.5 0.5 0.5 0.5 0.5 0.5 0.5 0.5 0.5 0.5 0.5 0.5 0.5 0.5 0.5 0.5 0.5 0.5 0.5 0.5 0.5 0.5 0.5 0.5 0.5 0.5 0.5 0.5 0.5 0.5 0.5 0.5 0.5 0.5 0.5 0.5 0.5 0.5 0.5 0.666427 0.333573 0.751295 0.24870499999999995 0.644061 0.355939 0.0682142 0.9317858 0.5 0.5 0.5 0.5 0.5 0.5 0.5 0.5 0.5 0.5 0.5 0.5 0.5 0.5 0.5 0.5 0.5 0.5 0.5 0.5 0.5 0.5 0.5 0.5 0.5 0.5 0.5 0.5 0.5 0.5 0.5 0.5 0.5 0.5 0.5 0.5 0.5 0.5 0.5 0.5 0.5 0.5 0.5 0.5 0.787204 0.21279599999999999 0.343193 0.6568069999999999 0.661648 0.338352 0.964122 0.035877999999999965 0.5 0.5 0.5 0.5 0.5 0.5 0.5 0.5 0.703699 0.29630100000000004 0.680947 0.31905300000000003 0.101665 0.898335 0.212261 0.787739 0.395066 0.6049340000000001 0.381458 0.6185419999999999 0.600722 0.399278 0.626973 0.373027 0.5 0.5 0.5 0.5 0.5 0.5 0.5 0.5 0.285422 0.7145779999999999 0.0874972 0.9125028 0.138466 0.861534 0.5604 0.4396 0.5 0.5 0.5 0.5 0.5 0.5 0.5 0.5 0.5 0.5 0.5 0.5 0.5 0.5 0.5 0.5 0.5 0.5 0.5 0.5 0.5 0.5 0.5 0.5 0.5 0.5 0.5 0.5 0.5 0.5 0.5 0.5 0.5 0.5 0.5 0.5 0.5 0.5 0.5 0.5 0.5 0.5 0.5 0.5 0.5 0.5 0.5 0.5 0.5 0.5 0.5 0.5 0.5 0.5 0.5 0.5 0.5 0.5 0.5 0.5 0.203864 0.796136 0.767432 0.232568 0.923511 0.07648900000000003 0.971681 0.028318999999999983 0.571636 0.42836399999999997 0.841163 0.158837 0.337627 0.662373 0.120935 0.879065 0.5 0.5 0.5 0.5 0.5 0.5 0.5 0.5 0.5 0.5 0.5 0.5 0.5 0.5 0.5 0.5 0.5 0.5 0.5 0.5 0.5 0.5 0.5 0.5 0.5 0.5 0.5 0.5 0.5 0.5 0.5 0.5 0.5 0.5 0.5 0.5 0.5 0.5 0.5 0.5 0.5 0.5 0.5 0.5 0.5 0.5 0.5 0.5 0.431214 0.568786 0.624122 0.37587800000000005 0.213828 0.786172 0.428445 0.571555 0.548126 0.451874 0.0727558 0.9272442 0.248547 0.751453 0.82528 0.17472 0.5 0.5 0.5 0.5 0.5 0.5 0.5 0.5 0.5 0.5 0.5 0.5 0.5 0.5 0.5 0.5 0.5 0.5 0.5 0.5 0.5 0.5 0.5 0.5 0.5 0.5 0.5 0.5 0.5 0.5 0.5 0.5 0.5 0.5 0.5 0.5 0.693854 0.30614600000000003 0.12736 0.87264 0.367311 0.6326890000000001 0.670599 0.32940100000000005 0.5 0.5 0.5 0.5 0.5 0.5 0.5 0.5 0.5 0.5 0.5 0.5 0.5 0.5 0.5 0.5 0.5 0.5 0.5 0.5 0.5 0.5 0.5 0.5 0.5 0.5 0.5 0.5 0.5 0.5 0.5 0.5 0.0172147 0.9827853 0.0595742 0.9404258 0.993941 0.006059000000000037 0.930747 0.06925300000000001 0.687795 0.31220499999999995 0.058107 0.941893 0.365752 0.6342479999999999 0.358394 0.641606 0.5 0.5 0.5 0.5 0.5 0.5 0.5 0.5 0.867913 0.13208699999999995 0.831947 0.168053 0.532091 0.467909 0.0188892 0.9811108 0.5 0.5 0.5 0.5 0.5 0.5 0.5 0.5 0.5 0.5 0.5 0.5 0.5 0.5 0.5 0.5 0.5 0.5 0.5 0.5 0.5 0.5 0.5 0.5 0.5 0.5 0.5 0.5 0.5 0.5 0.5 0.5 0.5 0.5 0.5 0.5 0.5 0.5 0.5 0.5 0.5 0.5 0.5 0.5 0.5 0.5 0.5 0.5 0.5 0.5 0.5 0.5 0.921803 0.07819699999999996 0.798283 0.20171700000000004 0.619677 0.38032299999999997 0.767821 0.23217900000000002 0.680313 0.31968700000000005 0.982127 0.017873000000000028 0.158737 0.841263 0.29287 0.70713 0.5 0.5 0.5 0.5 0.5 0.5 0.5 0.5 0.5 0.5 0.5 0.5 0.5 0.5 0.5 0.5 0.5 0.5 0.5 0.5 0.5 0.5 0.5 0.5 0.5 0.5 0.5 0.5 0.5 0.5 0.5 0.5 0.892754 0.10724599999999995 0.578425 0.42157500000000003 0.544408 0.455592 0.660575 0.339425 0.5 0.5 0.5 0.5 0.5 0.5 0.5 0.5 0.5 0.5 0.5 0.5 0.5 0.5 0.5 0.5 0.5 0.5 0.5 0.5 0.5 0.5 0.5 0.5 0.5 0.5 0.5 0.5 0.5 0.5 0.5 0.5 0.5 0.5 0.5 0.5 0.5 0.5 0.5 0.5 0.5 0.5 0.5 0.5 0.5 0.5 0.5 0.5 0.5 0.5 0.5 0.5 0.5 0.5 0.5 0.5 0.5 0.5 0.5 0.5 0.5 0.5 0.5 0.5 0.5 0.5 0.5 0.5 0.5 0.5 0.5 0.5 0.5 0.5 0.5 0.5 0.5 0.5 0.5 0.5 0.5 0.5 0.5 0.5 0.5 0.5 0.5 0.5 0.5 0.5 0.5 0.5 0.5 0.5 0.5 0.5 0.5 0.5 0.5 0.5 0.5 0.5 0.5 0.5 0.5 0.5 0.5 0.5 0.5 0.5 0.5 0.5 0.5 0.5 0.5 0.5 0.5 0.5 0.5 0.5 0.5 0.5 0.5 0.5 0.5 0.5 0.5 0.5 0.5 0.5 0.5 0.5 0.5 0.5 0.5 0.5 0.0675669 0.9324331 0.0541968 0.9458032 0.0716316 0.9283684 0.615074 0.384926 0.5 0.5 0.5 0.5 0.5 0.5 0.5 0.5 0.5 0.5 0.5 0.5 0.5 0.5 0.5 0.5 0.5 0.5 0.5 0.5 0.5 0.5 0.5 0.5 0.5 0.5 0.5 0.5 0.5 0.5 0.5 0.5 0.655783 0.344217 0.612864 0.38713600000000004 0.132278 0.867722 0.232458 0.767542 0.5 0.5 0.5 0.5 0.5 0.5 0.5 0.5 0.433889 0.566111 0.212356 0.787644 0.678703 0.32129700000000005 0.293078 0.706922 0.5 0.5 0.5 0.5 0.5 0.5 0.5 0.5 0.5 0.5 0.5 0.5 0.5 0.5 0.5 0.5 0.373079 0.6269210000000001 0.0994065 0.9005935 0.0660768 0.9339232 0.811196 0.18880399999999997 0.5 0.5 0.5 0.5 0.5 0.5 0.5 0.5 0.5 0.5 0.5 0.5 0.5 0.5 0.5 0.5 0.5 0.5 0.5 0.5 0.5 0.5 0.5 0.5 0.5 0.5 0.5 0.5 0.5 0.5 0.5 0.5 0.5 0.5 0.5 0.5 0.5 0.5 0.5 0.5 0.5 0.5 0.5 0.5 0.5 0.5 0.5 0.5 0.5 0.5 0.5 0.5 0.5 0.5 0.5 0.5 0.5 0.5 0.5 0.5 0.5 0.5 0.5 0.5 0.5 0.5 0.5 0.5 0.5 0.5 0.5 0.5 0.5 0.5 0.5 0.5 0.5 0.5 0.5 0.5 0.5 0.5 0.5 0.5 0.5 0.5 0.5 0.5 0.5 0.5 0.5 0.5 0.5 0.5 0.5 0.5 0.5 0.5 0.5 0.5 0.5 0.5 0.5 0.5 0.5 0.5 0.5 0.5 0.5 0.5 0.5 0.5 0.5 0.5 0.5 0.5 0.5 0.5 0.5 0.5 0.5 0.5 0.5 0.5 0.5 0.5 0.5 0.5 0.5 0.5 0.5 0.5 0.5 0.5 0.5 0.5 0.5 0.5 0.5 0.5 0.5 0.5 0.5 0.5 0.5 0.5 0.5 0.5 0.5 0.5 0.5 0.5 0.5 0.5 0.5 0.5 0.5 0.5 0.5 0.5 0.5 0.5 0.5 0.5 0.5 0.5 0.5 0.5 0.5 0.5 0.5 0.5 0.5 0.5 0.5 0.5 0.5 0.5 0.5 0.5 0.5 0.5 0.5 0.5 0.5 0.5 0.5 0.5 0.5 0.5 0.5 0.5 0.5 0.5 0.5 0.5 0.5 0.5 0.5 0.5 0.5 0.5 0.5 0.5 0.5 0.5 0.5 0.5 0.5 0.5 0.5 0.5 0.5 0.5 0.5 0.5
-1 -2 0
1 2 0
-2 3 0
2 -3 0
-3 4 0
3 -4 0
-4 -5 0
4 5 0
-5 6 0
5 -6 0
-6 -7 0
6 7 0
-7 8 0
7 -8 0
-8 -9 0
8 9 0
-9 -10 0
9 10 0
-10 -215 11 0
-10 215 -11 0
10 -216 11 0
10 216 -11 0
-11 12 0
11 -12 0
-12 -13 0
12 13 0
-13 14 0
13 -14 0
-1 15 0
1 -15 0
-15 -2 -16 0
-15 2 16 0
15 -2 -16 0
15 2 16 0
-16 -3 -17 0
-16 3 17 0
16 -3 -17 0
16 3 -17 0
-17 -4 18 0
-17 4 18 0
17 -4 -18 0
17 4 -18 0
-18 -5 -19 0
-18 5 -19 0
18 -5 19 0
18 5 -19 0
-19 -6 -241 20 0
-19 -6 241 -20 0
-19 6 -242 20 0
-19 6 242 -20 0
19 -6 -243 20 0
19 -6 243 -20 0
19 6 -244 20 0
19 6 244 -20 0
-20 -7 -21 0
-20 7 -21 0
20 -7 21 0
20 7 21 0
-21 -8 22 0
-21 8 -22 0
21 -8 22 0
21 8 -22 0
-22 -9 23 0
-22 9 -23 0
22 -9 -23 0
22 9 -23 0
-23 -10 -24 0
-23 10 24 0
23 -10 -24 0
23 10 -24 0
-24 -11 -261 25 0
-24 -11 261 -25 0
-24 11 -262 25 0
-24 11 262 -25 0
24 -11 -263 25 0
24 -11 263 -25 0
24 11 -264 25 0
24 11 264 -25 0
-25 -12 26 0
-25 12 -26 0
25 -12 26 0
25 12 -26 0
-26 -13 -27 0
-26 13 -27 0
26 -13 -27 0
26 13 27 0
-27 -14 28 0
-27 14 -28 0
27 -14 28 0
27 14 -28 0
-15 29 0
15 -29 0
-29 -16 -279 30 0
-29 -16 279 -30 0
-29 16 -280 30 0
-29 16 280 -30 0
29 -16 -281 30 0
29 -16 281 -30 0
29 16 -282 30 0
29 16 282 -30 0
-30 -17 31 0
-30 17 -31 0
30 -17 -31 0
30 17 -31 0
-31 -18 -32 0
-31 18 32 0
31 -18 32 0
31 18 -32 0
-32 -19 -33 0
-32 19 33 0
32 -19 -33 0
32 19 33 0
-33 -20 -34 0
-33 20 34 0
33 -20 -34 0
33 20 34 0
-34 -21 -35 0
-34 21 -35 0
34 -21 35 0
34 21 -35 0
-35 -22 -303 36 0
-35 -22 303 -36 0
-35 22 -304 36 0
-35 22 304 -36 0
35 -22 -305 36 0
35 -22 305 -36 0
35 22 -306 36 0
35 22 306 -36 0
-36 -23 37 0
-36 23 -37 0
36 -23 37 0
36 23 37 0
-37 -24 -311 38 0
-37 -24 311 -38 0
-37 24 -312 38 0
-37 24 312 -38 0
37 -24 -313 38 0
37 -24 313 -38 0
37 24 -314 38 0
37 24 314 -38 0
-38 -25 39 0
-38 25 -39 0
38 -25 -39 0
38 25 39 0
-39 -26 40 0
-39 26 40 0
39 -26 -40 0
39 26 40 0
-40 -27 41 0
-40 27 -41 0
40 -27 -41 0
40 27 41 0
-41 -28 42 0
-41 28 -42 0
41 -28 42 0
41 28 -42 0
-29 -43 0
29 43 0
-43 -30 44 0
-43 30 -44 0
43 -30 -44 0
43 30 -44 0
-44 -31 45 0
-44 31 -45 0
44 -31 45 0
44 31 -45 0
-45 -32 -46 0
-45 32 46 0
45 -32 46 0
45 32 46 0
-46 -33 -47 0
-46 33 -47 0
46 -33 47 0
46 33 -47 0
-47 -34 -349 48 0
-47 -34 349 -48 0
-47 34 -350 48 0
-47 34 350 -48 0
47 -34 -351 48 0
47 -34 351 -48 0
47 34 -352 48 0
47 34 352 -48 0
-48 -35 -49 0
-48 35 -49 0
48 -35 49 0
48 35 49 0
-49 -36 50 0
-49 36 50 0
49 -36 50 0
49 36 -50 0
-50 -37 -51 0
-50 37 51 0
50 -37 51 0
50 37 51 0
-51 -38 52 0
-51 38 -52 0
51 -38 52 0
51 38 52 0
-52 -39 -53 0
-52 39 53 0
52 -39 53 0
52 39 -53 0
-53 -40 -54 0
-53 40 54 0
53 -40 -54 0
53 40 -54 0
-54 -41 -55 0
-54 41 55 0
54 -41 55 0
54 41 55 0
-55 -42 56 0
-55 42 56 0
55 -42 56 0
55 42 -56 0
-43 57 0
43 -57 0
-57 -44 -58 0
-57 44 58 0
57 -44 -58 0
57 44 58 0
-58 -45 -59 0
-58 45 -59 0
58 -45 59 0
58 45 -59 0
-59 -46 -60 0
-59 46 -60 0
59 -46 -60 0
59 46 60 0
-60 -47 -61 0
-60 47 -61 0
60 -47 -61 0
60 47 61 0
-61 -48 62 0
-61 48 -62 0
61 -48 62 0
61 48 -62 0
-62 -49 63 0
-62 49 63 0
62 -49 63 0
62 49 -63 0
-63 -50 -64 0
-63 50 64 0
63 -50 -64 0
63 50 64 0
-64 -51 -415 65 0
-64 -51 415 -65 0
-64 51 -416 65 0
-64 51 416 -65 0
64 -51 -417 65 0
64 -51 417 -65 0
64 51 -418 65 0
64 51 418 -65 0
-65 -52 66 0
-65 52 -66 0
65 -52 66 0
65 52 -66 0
-66 -53 67 0
-66 53 67 0
66 -53 -67 0
66 53 67 0
-67 -54 68 0
-67 54 -68 0
67 -54 -68 0
67 54 68 0
-68 -55 69 0
-68 55 -69 0
68 -55 69 0
68 55 69 0
-69 -56 70 0
-69 56 -70 0
69 -56 70 0
69 56 -70 0
-57 -71 0
57 71 0
-71 -58 -72 0
-71 58 -72 0
71 -58 -72 0
71 58 72 0
-72 -59 -73 0
-72 59 73 0
72 -59 73 0
72 59 73 0
-73 -60 -74 0
-73 60 -74 0
73 -60 74 0
73 60 74 0
-74 -61 75 0
-74 61 75 0
74 -61 -75 0
74 61 -75 0
-75 -62 76 0
-75 62 -76 0
75 -62 76 0
75 62 -76 0
-76 -63 -77 0
-76 63 77 0
76 -63 -77 0
76 63 -77 0
-77 -64 -78 0
-77 64 78 0
77 -64 78 0
77 64 -78 0
-78 -65 79 0
-78 65 79 0
78 -65 79 0
78 65 -79 0
-79 -66 -80 0
-79 66 -80 0
79 -66 -80 0
79 66 80 0
-80 -67 -477 81 0
-80 -67 477 -81 0
-80 67 -478 81 0
-80 67 478 -81 0
80 -67 -479 81 0
80 -67 479 -81 0
80 67 -480 81 0
80 67 480 -81 0
-81 -68 -82 0
-81 68 82 0
81 -68 82 0
81 68 82 0
-82 -69 -83 0
-82 69 -83 0
82 -69 83 0
82 69 -83 0
-83 -70 -84 0
-83 70 84 0
83 -70 84 0
83 70 84 0
-71 -85 0
71 85 0
-85 -72 86 0
-85 72 -86 0
85 -72 -86 0
85 72 86 0
-86 -73 87 0
-86 73 -87 0
86 -73 87 0
86 73 -87 0
-87 -74 -503 88 0
-87 -74 503 -88 0
-87 74 -504 88 0
-87 74 504 -88 0
87 -74 -505 88 0
87 -74 505 -88 0
87 74 -506 88 0
87 74 506 -88 0
-88 -75 89 0
-88 75 -89 0
88 -75 -89 0
88 75 -89 0
-89 -76 -511 90 0
-89 -76 511 -90 0
-89 76 -512 90 0
-89 76 512 -90 0
89 -76 -513 90 0
89 -76 513 -90 0
89 76 -514 90 0
89 76 514 -90 0
-90 -77 -515 91 0
-90 -77 515 -91 0
-90 77 -516 91 0
-90 77 516 -91 0
90 -77 -517 91 0
90 -77 517 -91 0
90 77 -518 91 0
90 77 518 -91 0
-91 -78 -92 0
-91 78 92 0
91 -78 -92 0
91 78 92 0
-92 -79 -523 93 0
-92 -79 523 -93 0
-92 79 -524 93 0
-92 79 524 -93 0
92 -79 -525 93 0
92 -79 525 -93 0
92 79 -526 93 0
92 79 526 -93 0
-93 -80 94 0
-93 80 94 0
93 -80 -94 0
93 80 94 0
-94 -81 95 0
-94 81 -95 0
94 -81 95 0
94 81 95 0
-95 -82 -96 0
-95 82 -96 0
95 -82 -96 0
95 82 96 0
-96 -83 -97 0
-96 83 97 0
96 -83 97 0
96 83 97 0
-97 -84 -98 0
-97 84 -98 0
97 -84 98 0
97 84 98 0
-85 99 0
85 -99 0
-99 -86 100 0
-99 86 -100 0
99 -86 100 0
99 86 -100 0
-100 -87 101 0
-100 87 101 0
100 -87 101 0
100 87 -101 0
-101 -88 -557 102 0
-101 -88 557 -102 0
-101 88 -558 102 0
-101 88 558 -102 0
101 -88 -559 102 0
101 -88 559 -102 0
101 88 -560 102 0
101 88 560 -102 0
-102 -89 -561 103 0
-102 -89 561 -103 0
-102 89 -562 103 0
-102 89 562 -103 0
102 -89 -563 103 0
102 -89 563 -103 0
102 89 -564 103 0
102 89 564 -103 0
-103 -90 -104 0
-103 90 -104 0
103 -90 -104 0
103 90 104 0
-104 -91 -105 0
-104 91 -105 0
104 -91 105 0
104 91 -105 0
-105 -92 106 0
-105 92 106 0
105 -92 -106 0
105 92 -106 0
-106 -93 107 0
-106 93 107 0
106 -93 107 0
106 93 -107 0
-107 -94 -108 0
-107 94 108 0
107 -94 -108 0
107 94 -108 0
-108 -95 -109 0
-108 95 109 0
108 -95 -109 0
108 95 109 0
-109 -96 -589 110 0
-109 -96 589 -110 0
-109 96 -590 110 0
-109 96 590 -110 0
109 -96 -591 110 0
109 -96 591 -110 0
109 96 -592 110 0
109 96 592 -110 0
-110 -97 -593 111 0
-110 -97 593 -111 0
-110 97 -594 111 0
-110 97 594 -111 0
110 -97 -595 111 0
110 -97 595 -111 0
110 97 -596 111 0
110 97 596 -111 0
-111 -98 -112 0
-111 98 -112 0
111 -98 112 0
111 98 -112 0
-99 -113 0
99 113 0
-113 -100 114 0
-113 100 114 0
113 -100 -114 0
113 100 114 0
-114 -101 115 0
-114 101 115 0
114 -101 -115 0
114 101 -115 0
-115 -102 116 0
-115 102 116 0
115 -102 -116 0
115 102 -116 0
-116 -103 -615 117 0
-116 -103 615 -117 0
-116 103 -616 117 0
-116 103 616 -117 0
116 -103 -617 117 0
116 -103 617 -117 0
116 103 -618 117 0
116 103 618 -117 0
-117 -104 -118 0
-117 104 -118 0
117 -104 118 0
117 104 -118 0
-118 -105 119 0
-118 105 -119 0
118 -105 -119 0
118 105 119 0
-119 -106 -120 0
-119 106 120 0
119 -106 120 0
119 106 120 0
-120 -107 -121 0
-120 107 121 0
120 -107 -121 0
120 107 121 0
-121 -108 -635 122 0
-121 -108 635 -122 0
-121 108 -636 122 0
-121 108 636 -122 0
121 -108 -637 122 0
121 -108 637 -122 0
121 108 -638 122 0
121 108 638 -122 0
-122 -109 -639 123 0
-122 -109 639 -123 0
-122 109 -640 123 0
-122 109 640 -123 0
122 -109 -641 123 0
122 -109 641 -123 0
122 109 -642 123 0
122 109 642 -123 0
-123 -110 124 0
-123 110 -124 0
123 -110 -124 0
123 110 124 0
-124 -111 -647 125 0
-124 -111 647 -125 0
-124 111 -648 125 0
-124 111 648 -125 0
124 -111 -649 125 0
124 -111 649 -125 0
124 111 -650 125 0
124 111 650 -125 0
-125 -112 126 0
-125 112 126 0
125 -112 -126 0
125 112 126 0
-113 127 0
113 -127 0
-127 -114 128 0
-127 114 128 0
127 -114 -128 0
127 114 -128 0
-128 -115 -129 0
-128 115 129 0
128 -115 129 0
128 115 129 0
-129 -116 130 0
-129 116 -130 0
129 -116 130 0
129 116 -130 0
-130 -117 131 0
-130 117 -131 0
130 -117 -131 0
130 117 131 0
-131 -118 -132 0
-131 118 132 0
131 -118 -132 0
131 118 132 0
-132 -119 -677 133 0
-132 -119 677 -133 0
-132 119 -678 133 0
-132 119 678 -133 0
132 -119 -679 133 0
132 -119 679 -133 0
132 119 -680 133 0
132 119 680 -133 0
-133 -120 -681 134 0
-133 -120 681 -134 0
-133 120 -682 134 0
-133 120 682 -134 0
133 -120 -683 134 0
133 -120 683 -134 0
133 120 -684 134 0
133 120 684 -134 0
-134 -121 135 0
-134 121 -135 0
134 -121 -135 0
134 121 -135 0
-135 -122 136 0
-135 122 136 0
135 -122 -136 0
135 122 136 0
-136 -123 137 0
-136 123 -137 0
136 -123 -137 0
136 123 137 0
-137 -124 138 0
-137 124 138 0
137 -124 -138 0
137 124 138 0
-138 -125 -701 139 0
-138 -125 701 -139 0
-138 125 -702 139 0
-138 125 702 -139 0
138 -125 -703 139 0
138 -125 703 -139 0
138 125 -704 139 0
138 125 704 -139 0
-139 -126 -140 0
-139 126 140 0
139 -126 -140 0
139 126 -140 0
-127 141 0
127 -141 0
-141 -128 -142 0
-141 128 -142 0
141 -128 -142 0
141 128 142 0
-142 -129 -143 0
-142 129 -143 0
142 -129 143 0
142 129 143 0
-143 -130 -144 0
-143 130 -144 0
143 -130 144 0
143 130 144 0
-144 -131 -145 0
-144 131 145 0
144 -131 -145 0
144 131 145 0
-145 -132 -146 0
-145 132 146 0
145 -132 146 0
145 132 -146 0
-146 -133 -147 0
-146 133 -147 0
146 -133 147 0
146 133 -147 0
-147 -134 -148 0
-147 134 -148 0
147 -134 148 0
147 134 -148 0
-148 -135 149 0
-148 135 149 0
148 -135 -149 0
148 135 -149 0
-149 -136 150 0
-149 136 -150 0
149 -136 150 0
149 136 -150 0
-150 -137 -151 0
-150 137 151 0
150 -137 151 0
150 137 -151 0
-151 -138 -152 0
-151 138 152 0
151 -138 152 0
151 138 -152 0
-152 -139 153 0
-152 139 -153 0
152 -139 153 0
152 139 -153 0
-153 -140 -154 0
-153 140 -154 0
153 -140 154 0
153 140 -154 0
-141 155 0
141 -155 0
-155 -142 -156 0
-155 142 -156 0
155 -142 156 0
155 142 -156 0
-156 -143 -157 0
-156 143 157 0
156 -143 -157 0
156 143 -157 0
-157 -144 -773 158 0
-157 -144 773 -158 0
-157 144 -774 158 0
-157 144 774 -158 0
157 -144 -775 158 0
157 -144 775 -158 0
157 144 -776 158 0
157 144 776 -158 0
-158 -145 159 0
-158 145 -159 0
158 -145 159 0
158 145 -159 0
-159 -146 -160 0
-159 146 160 0
159 -146 -160 0
159 146 160 0
-160 -147 -161 0
-160 147 -161 0
160 -147 -161 0
160 147 161 0
-161 -148 162 0
-161 148 162 0
161 -148 -162 0
161 148 -162 0
-162 -149 -793 163 0
-162 -149 793 -163 0
-162 149 -794 163 0
-162 149 794 -163 0
162 -149 -795 163 0
162 -149 795 -163 0
162 149 -796 163 0
162 149 796 -163 0
-163 -150 164 0
-163 150 -164 0
163 -150 164 0
163 150 -164 0
-164 -151 -801 165 0
-164 -151 801 -165 0
-164 151 -802 165 0
-164 151 802 -165 0
164 -151 -803 165 0
164 -151 803 -165 0
164 151 -804 165 0
164 151 804 -165 0
-165 -152 166 0
-165 152 -166 0
165 -152 166 0
165 152 166 0
-166 -153 167 0
-166 153 -167 0
166 -153 -167 0
166 153 167 0
-167 -154 -813 168 0
-167 -154 813 -168 0
-167 154 -814 168 0
-167 154 814 -168 0
167 -154 -815 168 0
167 -154 815 -168 0
167 154 -816 168 0
167 154 816 -168 0
-155 169 0
155 -169 0
-169 -156 170 0
-169 156 -170 0
169 -156 170 0
169 156 -170 0
-170 -157 171 0
-170 157 171 0
170 -157 -171 0
170 157 171 0
-171 -158 -172 0
-171 158 172 0
171 -158 172 0
171 158 172 0
-172 -159 173 0
-172 159 -173 0
172 -159 173 0
172 159 -173 0
-173 -160 174 0
-173 160 -174 0
173 -160 174 0
173 160 174 0
-174 -161 -175 0
-174 161 175 0
174 -161 175 0
174 161 175 0
-175 -162 176 0
-175 162 -176 0
175 -162 176 0
175 162 176 0
-176 -163 177 0
-176 163 -177 0
176 -163 -177 0
176 163 -177 0
-177 -164 178 0
-177 164 178 0
177 -164 -178 0
177 164 178 0
-178 -165 179 0
-178 165 -179 0
178 -165 179 0
178 165 -179 0
-179 -166 180 0
-179 166 180 0
179 -166 -180 0
179 166 180 0
-180 -167 181 0
-180 167 181 0
180 -167 181 0
180 167 -181 0
-181 -168 -182 0
-181 168 182 0
181 -168 182 0
181 168 182 0
-169 183 0
169 -183 0
-183 -170 184 0
-183 170 184 0
183 -170 -184 0
183 170 -184 0
-184 -171 185 0
-184 171 -185 0
184 -171 185 0
184 171 185 0
-185 -172 186 0
-185 172 -186 0
185 -172 -186 0
185 172 -186 0
-186 -173 187 0
-186 173 -187 0
186 -173 187 0
186 173 -187 0
-187 -174 -188 0
-187 174 188 0
187 -174 -188 0
187 174 188 0
-188 -175 189 0
-188 175 -189 0
188 -175 189 0
188 175 -189 0
-189 -176 190 0
-189 176 190 0
189 -176 -190 0
189 176 -190 0
-190 -177 191 0
-190 177 191 0
190 -177 191 0
190 177 -191 0
-191 -178 -192 0
-191 178 -192 0
191 -178 192 0
191 178 -192 0
-192 -179 193 0
-192 179 -193 0
192 -179 -193 0
192 179 -193 0
-193 -180 -194 0
-193 180 -194 0
193 -180 194 0
193 180 -194 0
-194 -181 195 0
-194 181 195 0
194 -181 -195 0
194 181 -195 0
-195 -182 -196 0
-195 182 196 0
195 -182 -196 0
195 182 -196 0
196 0
