data/benchmarks/bayes/90-14-5-q.gr
p tw 924 861
67 68
177 190
99 100
26 39
133 678
122 641
59 73
136 149
159 160
8 9
89 562
118 131
40 41
77 90
77 517
163 795
81 478
100 101
97 593
132 133
151 802
11 261
64 416
92 106
192 193
41 42
111 595
151 164
73 74
110 123
33 47
133 134
87 503
125 139
51 64
139 702
74 75
106 107
143 156
66 80
166 167
88 504
15 16
47 48
76 511
158 172
7 21
167 815
107 108
122 636
36 304
99 113
19 242
48 49
80 81
40 54
101 558
20 243
132 146
144 776
81 82
25 38
73 87
173 174
120 684
22 23
165 179
14 28
114 115
106 120
55 56
103 618
47 61
147 148
122 640
139 153
89 561
79 526
163 794
81 477
151 801
80 94
91 518
172 186
111 594
165 803
25 262
121 635
181 182
173 187
84 97
176 189
24 311
125 650
158 171
117 130
80 480
122 635
36 303
90 512
96 592
21 22
19 241
58 71
147 161
29 282
113 114
150 163
162 793
132 145
54 55
144 775
91 104
138 701
154 816
146 147
32 45
120 683
87 506
165 178
87 88
124 137
179 180
35 306
106 119
65 78
88 89
103 617
120 121
124 649
157 170
6 19
180 181
90 516
29 30
139 152
61 62
79 525
51 417
98 111
21 35
121 122
153 154
80 93
2 3
109 642
39 52
91 517
113 127
62 63
172 185
111 593
94 95
165 802
25 261
131 144
54 68
13 27
93 526
3 4
35 36
146 160
72 85
105 119
95 96
127 128
164 177
87 101
187 188
46 60
36 37
68 69
179 193
28 42
34 351
128 129
160 161
90 511
120 134
96 591
79 93
69 70
101 102
29 281
61 75
161 162
20 34
10 11
153 167
2 16
102 103
110 592
94 108
121 638
158 776
53 67
194 195
43 44
119 677
35 49
135 136
134 684
127 141
35 305
38 51
89 514
86 100
76 77
24 314
168 816
68 82
124 648
27 41
90 515
160 174
117 618
51 416
101 115
12 25
60 74
109 641
162 796
165 801
1 15
138 704
110 596
13 26
93 525
24 264
105 118
123 642
9 10
46 59
138 151
34 350
88 559
6 242
38 311
19 32
108 635
79 92
134 135
171 184
20 33
48 351
75 76
112 125
110 591
16 17
158 775
53 66
67 477
103 561
108 109
145 158
134 683
16 282
37 314
149 793
49 50
89 513
86 99
116 616
168 815
109 110
178 191
124 647
125 701
27 40
92 524
50 51
117 617
10 216
82 83
119 132
51 415
42 56
142 143
23 24
134 148
65 417
60 73
83 84
102 564
115 116
152 165
75 89
175 176
34 48
110 595
24 25
93 524
24 263
111 649
164 804
93 106
16 30
157 774
116 117
119 680
123 641
108 122
67 81
133 682
57 58
167 168
89 90
126 139
49 63
159 173
149 150
88 558
8 22
6 241
109 590
30 31
100 114
47 349
90 91
82 96
41 55
31 32
141 142
48 350
102 559
23 37
133 147
123 124
74 506
110 590
115 129
74 88
64 65
174 175
56 70
166 180
22 306
156 157
15 29
5 6
37 313
133 677
59 72
107 121
97 98
116 615
167 181
77 516
89 103
189 190
48 62
148 149
92 523
64 415
92 105
10 215
30 44
30 282
140 154
33 46
81 95
65 416
141 155
102 563
125 138
139 701
22 36
122 123
34 47
111 648
164 803
66 79
24 262
114 128
132 680
88 503
67 480
157 773
174 188
7 20
123 640
55 69
167 814
67 80
133 681
159 172
8 21
109 589
40 53
97 596
63 64
11 264
101 557
100 113
20 242
148 162
4 5
41 54
73 86
48 349
102 558
133 146
181 195
14 27
37 38
74 87
122 136
166 179
22 305
76 514
47 60
37 312
122 639
107 120
130 131
167 180
77 515
163 793
11 12
48 61
140 153
47 352
30 281
163 164
44 45
81 94
102 562
173 186
22 35
155 156
132 679
114 127
137 138
174 187
125 649
96 97
18 19
167 813
55 68
80 479
88 102
188 189
147 160
180 194
89 564
170 171
29 43
129 130
81 480
97 595
121 135
151 804
11 263
64 418
111 112
20 241
148 161
144 774
62 76
162 163
154 815
120 682
154 168
87 505
144 145
3 17
181 194
103 104
139 704
95 109
85 86
195 196
122 135
155 169
88 506
177 178
36 50
76 513
103 616
136 137
96 110
122 638
128 142
36 306
118 119
77 78
79 524
19 244
21 34
69 83
169 170
129 143
91 516
161 175
151 152
101 560
10 24
110 111
54 67
102 116
51 52
162 176
146 159
43 57
143 144
103 117
87 100
135 149
132 678
179 192
125 648
28 41
76 90
80 478
88 101
136 150
120 133
122 642
168 182
96 590
180 193
89 563
29 280
61 74
77 91
81 479
151 803
121 134
169 183
153 166
2 15
144 773
111 596
25 26
25 264
62 75
110 124
94 107
154 814
121 637
120 681
154 167
87 504
3 16
51 65
35 48
95 108
17 18
143 157
35 304
9 23
24 313
36 49
103 615
68 81
128 141
36 305
90 514
160 173
79 523
19 243
69 82
101 114
109 640
91 515
162 795
161 174
10 23
138 703
102 115
176 177
135 148
17 31
117 118
34 349
76 89
109 123
80 477
11 216
58 59
168 181
96 589
90 518
191 192
50 64
150 151
29 279
142 156
91 92
165 804
83 97
25 263
183 184
154 813
32 33
121 636
158 774
175 189
165 166
24 38
124 125
84 98
134 682
16 281
116 130
65 66
35 303
89 512
176 190
9 22
24 312
57 71
168 814
157 158
6 7
117 131
38 314
149 163
139 140
108 638
90 513
117 616
58 72
42 55
90 104
190 191
39 40
150 164
134 147
109 639
162 794
172 173
182 196
31 45
131 132
91 105
75 88
123 137
138 702
110 594
93 523
72 73
32 46
16 29
103 564
64 78
119 679
164 165
124 138
108 121
156 170
5 19
149 796
17 30
65 79
49 62
97 111
88 557
109 122
124 650
11 215
125 704
157 171
6 20
90 517
50 63
51 418
82 95
98 112
142 155
39 53
23 36
83 96
74 505
110 589
115 128
131 145
158 773
175 188
24 37
72 86
56 69
134 681
16 280
116 129
38 39
164 178
89 511
168 813
89 102
34 352
6 244
38 313
149 162
71 72
108 637
117 615
30 43
63 77
90 103
12 13
65 415
4 18
182 195
104 105
31 44
13 14
123 136
45 46
110 593
111 647
164 802
24 261
105 106
37 51
67 479
103 563
64 77
119 678
123 639
46 47
156 169
78 79
133 680
5 18
149 795
38 52
116 618
70 84
138 139
97 110
19 20
130 144
125 703
79 80
11 25
92 526
71 85
171 172
20 21
52 53
163 177
12 26
44 58
102 557
104 118
74 504
53 54
45 59
145 146
157 776
22 304
26 27
137 151
16 279
37 311
86 87
18 32
133 684
78 92
178 179
27 28
138 152
88 560
6 243
109 592
38 312
170 184
19 33
108 636
119 120
47 351
30 280
63 76
111 125
60 61
171 185
4 17
52 66
152 153
48 352
102 561
1 2
112 126
144 158
164 801
93 94
37 50
67 478
85 99
103 562
185 186
145 159
177 191
26 40
133 679
149 794
116 617
70 83
186 187
118 132
77 518
130 143
163 796
178 192
125 702
97 594
11 24
92 525
11 262
64 417
119 133
151 165
163 176
65 418
44 57
139 703
104 117
152 166
74 503
111 650
45 58
88 505
93 107
193 194
157 775
22 303
76 512
137 150
59 60
167 816
96 109
122 637
18 31
133 683
78 91
126 140
170 183
109 591
92 93
129 142
47 350
30 279
20 244
101 559
111 124
184 185
33 34
25 39
125 126
52 65
162 175
102 560
34 35
144 157
66 67
103 116
132 677
158 159
7 8
125 647
